Problem:    
Rows:       152
Columns:    61 (44 integer, 44 binary)
Non-zeros:  416
Status:     INTEGER OPTIMAL
Objective:  value = 83.863783 (MINimum)

   No.   Row name        Activity     Lower bound   Upper bound
------ ------------    ------------- ------------- -------------
     1 r.5                   83.8638             0               
     2 r.6                   33.8863      -496.513               
     3 r.7                   583.864             0               
     4 r.8                  -483.321      -491.015               
     5 r.9                   83.8638             0               
     6 r.10                  30.3992      -495.205               
     7 r.11                  583.864             0               
     8 r.12                 -473.421        -490.1               
     9 r.13                  83.8638             0               
    10 r.14                  65.1457       -495.73               
    11 r.15                  583.864             0               
    12 r.16                 -420.933      -486.079               
    13 r.17                  83.8638             0               
    14 r.18                  9.86239      -497.832               
    15 r.19                  583.864             0               
    16 r.20                 -434.854      -491.795               
    17 r.21                  83.8638             0               
    18 r.22                   7.6947      -498.071               
    19 r.23                  583.864             0               
    20 r.24                 -466.114      -492.693               
    21 r.25                  83.8638             0               
    22 r.26                   7.6947      -493.375               
    23 r.27                  583.864             0               
    24 r.28                  -443.06      -476.946               
    25 r.29                  83.8638             0               
    26 r.30                  1.06946      -498.171               
    27 r.31                  583.864             0               
    28 r.32                 -416.136      -495.203               
    29 r.33                  83.8638             0               
    30 r.34                   7.6947      -499.312               
    31 r.35                  583.864             0               
    32 r.36                 -492.305      -492.305               
    33 r.37                        1             1             = 
    34 r.38                        1             1             = 
    35 r.39                        1             1             = 
    36 r.40                        1             1             = 
    37 r.41                        1             1             = 
    38 r.42                        1             1             = 
    39 r.43                        1             1             = 
    40 r.44                        1             1             = 
    41 r.45                        1             1             = 
    42 r.46                        1             1             = 
    43 r.47                        1             1             = 
    44 r.48                        1             1             = 
    45 r.49                        1             1             = 
    46 r.50                        1             1             = 
    47 r.51                        1             1             = 
    48 r.52                        1             1             = 
    49 r.53                  -3.4871      -495.205               
    50 r.54                   -490.1        -490.1               
    51 r.55                 -468.741       -495.73               
    52 r.56                 -437.612      -486.079               
    53 r.57                 -24.0239      -497.832               
    54 r.58                 -451.534      -491.795               
    55 r.59                 -26.1916      -498.071               
    56 r.60                 -482.793      -492.693               
    57 r.61                 -26.1916      -493.375               
    58 r.62                 -476.946      -476.946               
    59 r.63                 -8.98467      -493.375               
    60 r.64                 -459.739      -476.946               
    61 r.65                 -32.8168      -498.171               
    62 r.66                 -432.816      -495.203               
    63 r.67                  26.1916             0               
    64 r.68                        0             0               
    65 r.69                  26.1916             0               
    66 r.70                        0             0               
    67 r.71                   3.4871        3.4871               
    68 r.72                    490.1       8.98467               
    69 r.73                 -465.253       -495.73               
    70 r.74                 -447.512      -486.079               
    71 r.75                 -20.5368      -497.832               
    72 r.76                 -461.433      -491.795               
    73 r.77                 -22.7045      -498.071               
    74 r.78                 -492.693      -492.693               
    75 r.79                 -22.7045      -493.375               
    76 r.80                 -469.639      -476.946               
    77 r.81                 -29.3297      -498.171               
    78 r.82                 -446.535      -495.203               
    79 r.83                 -25.5097      -498.171               
    80 r.84                 -442.715      -495.203               
    81 r.85                  22.7045             0               
    82 r.86                  8.98467             0               
    83 r.87                  22.7045             0               
    84 r.88                  8.98467             0               
    85 r.89                  468.741        3.4871               
    86 r.90                  437.612       8.98467               
    87 r.91                  465.253       4.79542               
    88 r.92                  447.512       9.89978               
    89 r.93                  55.2833             0               
    90 r.94                  55.2833             0               
    91 r.95                        0             0               
    92 r.96                        0             0               
    93 r.97                  -57.451      -498.071               
    94 r.98                 -45.1809      -492.693               
    95 r.99                  -57.451      -493.375               
    96 r.100                -22.1268      -476.946               
    97 r.101                -64.0763      -498.171               
    98 r.102                -481.282      -495.203               
    99 r.103                -77.9977      -498.171               
   100 r.104                -495.203      -495.203               
   101 r.105                  57.451             0               
   102 r.106                  57.451             0               
   103 r.107                  57.451             0               
   104 r.108                  57.451             0               
   105 r.109                 24.0239        3.4871               
   106 r.110                 451.534       8.98467               
   107 r.111                 20.5368       4.79542               
   108 r.112                 461.433       9.89978               
   109 r.113                -2.16769      -498.071               
   110 r.114                -31.2595      -492.693               
   111 r.115                -2.16769      -493.375               
   112 r.116                -8.20531      -476.946               
   113 r.117                -8.79293      -498.171               
   114 r.118                -425.999      -495.203               
   115 r.119                -64.0763      -498.171               
   116 r.120                -481.282      -495.203               
   117 r.121                 2.16769             0               
   118 r.122                 49.2457             0               
   119 r.123                 2.16769             0               
   120 r.124                 49.2457             0               
   121 r.125                 26.1916        3.4871               
   122 r.126                 482.793       8.98467               
   123 r.127                 22.7045       4.79542               
   124 r.128                 492.693       9.89978               
   125 r.129                  57.451        4.2697               
   126 r.130                 45.1809       13.9215               
   127 r.131                 2.16769       2.16769               
   128 r.132                 31.2595       8.20531               
   129 r.133                       0      -493.375               
   130 r.134                -450.754      -476.946               
   131 r.135                -26.1916      -493.375               
   132 r.136                -476.946      -476.946               
   133 r.137                -6.62524      -498.171               
   134 r.138                -423.831      -495.203               
   135 r.139                -32.8168      -498.171               
   136 r.140                -450.022      -495.203               
   137 r.141                       0             0               
   138 r.142                 18.8845             0               
   139 r.143                       0             0               
   140 r.144                 18.8845             0               
   141 r.145                 22.7045       4.79542               
   142 r.146                 469.639       9.89978               
   143 r.147                  57.451        4.2697               
   144 r.148                 22.1268       13.9215               
   145 r.149                 2.16769       2.16769               
   146 r.150                 8.20531       8.20531               
   147 r.151                -6.62524      -498.171               
   148 r.152                -473.077      -495.203               
   149 r.153                 32.8168        3.4871               
   150 r.154                 432.816       8.98467               
   151 r.155                 6.62524       6.62524               
   152 r.156                 473.077       23.0541               

   No. Column name       Activity     Lower bound   Upper bound
------ ------------    ------------- ------------- -------------
     1 tt                    83.8638             0               
     2 s_1_1        *              0             0             1 
     3 t_1_1                 49.9775             0               
     4 s_1_6        *              0             0             1 
     5 s_2_1        *              1             0             1 
     6 t_2_1                 67.1844             0               
     7 s_2_6        *              1             0             1 
     8 s_1_2        *              0             0             1 
     9 t_1_2                 53.4646             0               
    10 s_1_7        *              0             0             1 
    11 s_2_2        *              1             0             1 
    12 t_2_2                 57.2846             0               
    13 s_2_7        *              1             0             1 
    14 s_1_3        *              0             0             1 
    15 t_1_3                 18.7181             0               
    16 s_2_3        *              1             0             1 
    17 t_2_3                 4.79658             0               
    18 s_1_4        *              0             0             1 
    19 t_1_4                 74.0014             0               
    20 s_2_4        *              1             0             1 
    21 t_2_4                 18.7181             0               
    22 s_1_5        *              0             0             1 
    23 t_1_5                 76.1691             0               
    24 s_2_5        *              1             0             1 
    25 t_2_5                 49.9775             0               
    26 t_1_6                 76.1691             0               
    27 t_2_6                 26.9234             0               
    28 t_1_7                 82.7943             0               
    29 t_2_7                       0             0               
    30 s_1_8        *              0             0             1 
    31 t_1_8                 76.1691             0               
    32 s_2_8        *              1             0             1 
    33 t_2_8                 76.1691             0               
    34 u_1_1_2      *              0             0             1 
    35 u_2_1_2      *              1             0             1 
    36 u_1_1_3      *              1             0             1 
    37 u_2_1_3      *              1             0             1 
    38 u_1_1_4      *              0             0             1 
    39 u_2_1_4      *              1             0             1 
    40 u_1_1_5      *              0             0             1 
    41 u_2_1_5      *              1             0             1 
    42 u_1_1_7      *              0             0             1 
    43 u_2_1_7      *              1             0             1 
    44 u_1_2_3      *              1             0             1 
    45 u_2_2_3      *              1             0             1 
    46 u_1_2_4      *              0             0             1 
    47 u_2_2_4      *              1             0             1 
    48 u_1_2_5      *              0             0             1 
    49 u_2_2_5      *              1             0             1 
    50 u_1_2_6      *              0             0             1 
    51 u_2_2_6      *              1             0             1 
    52 u_1_3_5      *              0             0             1 
    53 u_2_3_5      *              0             0             1 
    54 u_1_3_6      *              0             0             1 
    55 u_2_3_6      *              0             0             1 
    56 u_1_4_5      *              0             0             1 
    57 u_2_4_5      *              0             0             1 
    58 u_1_4_6      *              0             0             1 
    59 u_2_4_6      *              0             0             1 
    60 u_1_6_7      *              0             0             1 
    61 u_2_6_7      *              1             0             1 

Integer feasibility conditions:

KKT.PE: max.abs.err = 0.00e+00 on row 0
        max.rel.err = 0.00e+00 on row 0
        High quality

KKT.PB: max.abs.err = 5.68e-14 on row 50
        max.rel.err = 1.98e-15 on row 67
        High quality

End of output
